100
500
349
342
341
340
340
337
336
336
336
335
335
335
334
326
325
325
324
312
310
304
303
300
299
299
294
289
287
285
285
284
283
281
280
279
279
275
275
271
271
268
267
267
257
251
246
240
239
234
233
231
231
228
227
223
222
216
215
211
210
210
204
203
198
195
192
192
189
186
186
181
180
180
170
165
164
164
159
158
155
155
153
152
148
147
146
144
143
139
136
134
130
126
125
125
122
118
118
114
105
103
